small
0 31 0.51
1 33 0.6
2 29 0.51
3 33 0.49
4 29 0.34
5 33 0.69
6 31 0.93
7 31 0.32
8 29 0.5
9 34 0.59
10 26 0.74
11 29 1.03
12 28 0.53
13 29 0.65
14 28 0.5
medium
0 275 90.6
1 267 88.01
2 289 43.53
3 277 89.22
4 281 48.56
5 279 55.89
6 273 71.89
7 277 74.32
8 268 60.4
9 293 46.91
10 280 77.43
11 268 54.91
12 267 68.07
13 290 58.92
14 293 48.66
large
0 1484 553.87
1 1460 565.04
2 1464 565.33
3 1477 574.61
4 1499 573.89
5 1491 575.71
6 1481 570.06
7 1502 428.32
8 1463 567.63
9 1480 577.09
10 1493 569.41
11 1490 574.42
12 1476 571.99
13 1468 564.16
14 1469 568.42
